# Test of ML-ORB potential for BaTiO3 system

units		metal
boundary	p p p
atom_style	atomic

read_data	data.BaTiO3

pair_style  orb ./orb_driver.py 
pair_coeff	* *  orb-v2 Ti Ba O

neighbor	    0.3 bin
neigh_modify	delay 10

thermo    10
timestep  0.001
velocity  all create 300.0 4928459 rot yes dist gaussian
fix       1 all nvt temp 300.0 300.0 1.0

dump      1 all atom 10 dump.BaTiO3-ML-ORB
run        500
